tsp_instances/TSP50/instance49.tsp
NODE_COORD_SECTION
0 135 4
1 82 42
2 2 171
3 66 103
4 129 169
5 75 74
6 200 97
7 25 109
8 155 108
9 19 113
10 29 65
11 114 148
12 136 66
13 28 107
14 135 15
15 59 52
16 50 164
17 106 130
18 34 96
19 62 195
20 55 180
21 199 99
22 196 157
23 162 12
24 165 173
25 183 66
26 25 33
27 70 60
28 35 133
29 34 175
30 120 167
31 114 25
32 139 153
33 17 0
34 65 193
35 196 159
36 181 195
37 173 104
38 94 5
39 196 39
40 146 7
41 69 4
42 200 125
43 8 132
44 91 40
45 43 115
46 4 162
47 34 123
48 77 69
49 106 14
