tsp_instances/TSP50/instance49.opt.tour
TOUR_SECTION
1
15
32
50
39
42
34
27
11
19
14
8
10
44
47
3
30
20
35
21
17
29
48
46
4
6
49
28
16
2
45
13
38
9
18
12
31
5
33
25
37
36
23
43
22
7
26
40
24
41
-1